p cnf 123 375
c t mc
-3 -1 0
-3 -2 0
1 2 3 0
-5 -3 0
-5 -4 0
3 4 5 0
8 6 0
8 7 0
-6 -7 -8 0
10 -8 0
10 9 0
8 -9 -10 0
-11 5 0
-11 10 0
-5 -10 11 0
-12 4 0
-12 8 0
-4 -8 12 0
14 12 0
14 -13 0
-12 13 -14 0
15 -4 0
15 -14 0
4 14 -15 0
16 11 0
16 15 0
-11 -15 -16 0
-20 17 0
-20 19 0
-17 -19 20 0
21 20 0
21 13 0
-20 -13 -21 0
-18 21 -22 0
18 -21 -22 0
-18 -21 22 0
18 21 22 0
23 -17 0
23 22 0
17 -22 -23 0
-24 9 0
-24 -23 0
-9 23 24 0
-26 -6 0
-26 -25 0
6 25 26 0
-28 -27 0
-28 13 0
27 -13 28 0
29 -4 0
29 28 0
4 -28 -29 0
-30 -26 0
-30 -29 0
26 29 30 0
30 -18 -31 0
-30 18 -31 0
30 18 31 0
-30 -18 31 0
-2 -20 -32 0
2 20 -32 0
-2 20 32 0
2 -20 32 0
-34 -33 0
-34 -3 0
33 3 34 0
36 34 0
36 35 0
-34 -35 -36 0
37 32 0
37 -36 0
-32 36 -37 0
38 -31 0
38 -37 0
31 37 -38 0
-39 -24 0
-39 -38 0
24 38 39 0
40 -16 0
40 39 0
16 -39 -40 0
-42 -41 0
-42 9 0
41 -9 42 0
-43 -28 -44 0
43 28 -44 0
-43 28 44 0
43 -28 44 0
-45 25 0
-45 -44 0
-25 44 45 0
-46 -45 0
-46 8 0
45 -8 46 0
47 -6 0
47 1 0
6 -1 -47 0
19 -43 -48 0
-19 43 -48 0
19 43 48 0
-19 -43 48 0
50 -48 0
50 -49 0
48 49 -50 0
47 50 -51 0
-47 -50 -51 0
47 -50 51 0
-47 50 51 0
-52 -33 0
-52 18 0
33 -18 52 0
-53 -51 0
-53 52 0
51 -52 53 0
-46 -53 -54 0
46 53 -54 0
-46 53 54 0
46 -53 54 0
55 42 0
55 -54 0
-42 54 -55 0
-56 13 0
-56 47 0
-13 -47 56 0
-57 47 0
-57 44 0
-47 -44 57 0
58 -57 0
58 -22 0
57 22 -58 0
59 8 0
59 -58 0
-8 58 -59 0
-56 59 -60 0
56 -59 -60 0
-56 -59 60 0
56 59 60 0
-22 -29 -61 0
22 29 -61 0
-22 29 61 0
22 -29 61 0
-60 61 -62 0
60 -61 -62 0
-60 -61 62 0
60 61 62 0
-63 -55 0
-63 -62 0
55 62 63 0
-64 -49 0
-64 -8 0
49 8 64 0
65 57 0
65 -64 0
-57 64 -65 0
-66 -43 0
-66 8 0
43 -8 66 0
-67 -65 0
-67 66 0
65 -66 67 0
68 57 0
68 -20 0
-57 20 -68 0
69 68 0
69 2 0
-68 -2 -69 0
-71 43 0
-71 70 0
-43 -70 71 0
-71 49 -72 0
71 -49 -72 0
-71 -49 72 0
71 49 72 0
73 -69 0
73 -72 0
69 72 -73 0
-75 74 0
-75 8 0
-74 -8 75 0
-76 73 0
-76 75 0
-73 -75 76 0
-77 -67 0
-77 -76 0
67 76 77 0
79 78 0
79 6 0
-78 -6 -79 0
-80 27 0
-80 -79 0
-27 79 80 0
81 -80 0
81 -44 0
80 44 -81 0
-23 -66 -82 0
23 66 -82 0
-23 66 82 0
23 -66 82 0
29 -48 -83 0
-29 48 -83 0
29 48 83 0
-29 -48 83 0
74 83 -84 0
-74 -83 -84 0
74 -83 84 0
-74 83 84 0
-41 -19 -85 0
41 19 -85 0
-41 19 85 0
41 -19 85 0
41 85 -86 0
-41 -85 -86 0
41 -85 86 0
-41 85 86 0
-87 -41 0
-87 3 0
41 -3 87 0
88 41 0
88 -87 0
-41 87 -88 0
-8 -88 -89 0
8 88 -89 0
-8 88 89 0
8 -88 89 0
-90 89 0
-90 -3 0
-89 3 90 0
-86 -90 -91 0
86 90 -91 0
-86 90 91 0
86 -90 91 0
84 91 -92 0
-84 -91 -92 0
84 -91 92 0
-84 91 92 0
94 74 0
94 -8 0
-74 8 -94 0
-95 -8 0
-95 -94 0
8 94 95 0
-96 -93 0
-96 -95 0
93 95 96 0
97 92 0
97 -96 0
-92 96 -97 0
-98 -82 0
-98 97 0
82 -97 98 0
-81 98 -99 0
81 -98 -99 0
-81 -98 99 0
81 98 99 0
100 77 0
100 -99 0
-77 99 -100 0
63 100 -101 0
-63 -100 -101 0
63 -100 101 0
-63 100 101 0
-87 70 -102 0
87 -70 -102 0
-87 -70 102 0
87 70 102 0
103 3 0
103 -48 0
-3 48 -103 0
102 103 -104 0
-102 -103 -104 0
102 -103 104 0
-102 103 104 0
-105 -101 0
-105 -104 0
101 104 105 0
-107 -71 0
-107 -106 0
71 106 107 0
-108 107 0
-108 -80 0
-107 80 108 0
57 107 -109 0
-57 -107 -109 0
57 -107 109 0
-57 107 109 0
110 108 0
110 -109 0
-108 109 -110 0
-111 105 0
-111 110 0
-105 -110 111 0
112 -3 0
112 78 0
3 -78 -112 0
-113 47 0
-113 -48 0
-47 48 113 0
114 -112 0
114 -113 0
112 113 -114 0
-115 44 0
-115 -17 0
-44 17 115 0
116 -17 0
116 -115 0
17 115 -116 0
117 79 0
117 116 0
-79 -116 -117 0
-118 -117 0
-118 -50 0
117 50 118 0
119 -9 0
119 43 0
9 -43 -119 0
-118 119 -120 0
118 -119 -120 0
-118 -119 120 0
118 119 120 0
-121 114 0
-121 120 0
-114 -120 121 0
122 -111 0
122 -121 0
111 121 -122 0
123 -40 0
123 122 0
40 -122 -123 0
93 -10 121 -91 95 105 40 3 0
-72 -52 17 -27 91 -112 0
98 37 57 103 -73 122 38 121 -28 0
71 -84 -63 -5 -70 -97 23 -38 -26 0
-52 38 37 -60 3 0
-52 -104 -105 0
87 63 5 17 108 122 51 70 85 0
-60 -41 -55 -48 88 9 -73 112 42 0
-26 -25 -60 -24 22 8 -66 0
-48 -22 -57 0
-95 107 17 -111 -99 0
-122 78 121 57 3 104 10 -5 -39 19 0
52 96 71 17 46 120 -20 0
-114 37 33 -6 30 29 106 -98 67 0
88 92 -13 -43 48 -20 46 -83 -9 0
-87 -96 112 41 -56 5 -102 -26 0
-31 30 63 117 -68 -71 113 -110 0
50 -88 -42 -68 -85 -23 -29 -38 0
-59 116 1 -83 97 94 -37 0
68 -52 -86 0
-63 55 -16 -111 113 -107 41 77 70 0
8 -115 -13 25 0
-20 -105 -50 123 -13 -83 -42 101 43 0
-104 99 -3 16 -53 119 -30 0
30 68 -32 6 10 77 56 -5 112 37 0
23 77 -80 45 13 60 -114 4 -47 22 0
100 55 78 0
11 -117 -47 -72 38 50 102 -52 104 -84 0
-120 34 12 -115 35 0
33 67 107 85 -66 0
70 94 60 73 -51 -123 0
-65 -36 -27 -105 69 -102 101 40 0
-26 22 32 -43 -25 105 28 0
27 -5 -39 0
6 -100 106 0
-115 25 72 -90 17 47 -41 0
54 92 -33 -120 0
117 51 -81 43 1 -64 91 0
-60 101 -81 -118 -23 -29 72 -41 49 0
-121 -1 -21 47 -90 -101 27 -35 88 0
-9 18 -43 -60 -46 0
-59 -64 -121 -95 -53 0
98 -70 -7 -1 -81 -62 4 -42 0
87 -78 -66 -120 93 0
21 88 -48 38 32 -79 80 -69 0
-11 -102 57 -16 0
123 0
